66
242
44
0 2
0 35
1 2
1 5
1 6
1 11
1 29
1 32
2 5
2 6
2 11
2 13
2 28
2 35
2 62
3 4
3 7
3 37
3 50
4 7
4 30
4 33
4 34
5 6
5 11
5 19
5 25
5 27
5 29
5 32
5 40
5 41
6 11
6 21
6 22
6 24
6 26
6 29
6 32
7 27
7 30
7 33
7 34
7 41
7 56
7 58
7 59
7 61
8 12
8 43
9 10
10 18
10 19
10 21
10 22
10 36
10 49
10 54
12 13
12 14
12 28
12 43
12 62
13 14
13 23
13 28
13 42
13 43
13 46
13 62
14 28
14 43
14 62
15 16
15 17
15 20
15 46
15 52
15 53
15 64
16 17
16 20
16 42
16 45
16 64
17 20
17 42
17 45
18 19
18 21
18 22
19 21
19 22
19 25
19 27
20 28
20 37
20 45
21 22
21 24
21 26
21 58
21 62
22 24
22 26
23 36
23 42
23 46
23 63
24 26
24 58
24 62
25 27
25 34
25 38
25 40
25 41
25 60
26 41
26 59
27 40
27 41
28 37
28 43
28 45
28 50
28 62
29 30
29 31
29 32
29 35
29 47
30 33
30 34
31 32
31 35
31 47
32 35
32 47
33 34
33 36
33 39
33 51
33 57
33 64
34 38
34 40
34 60
35 37
35 47
35 50
36 39
36 42
36 46
36 51
36 57
36 63
36 64
37 45
37 47
37 50
38 40
38 43
38 44
38 48
38 49
38 54
38 60
38 62
39 45
39 51
39 53
39 57
39 64
40 41
40 60
41 56
41 58
41 59
41 61
42 45
42 46
42 52
42 53
42 56
42 63
42 65
43 44
43 48
43 49
43 54
43 62
44 48
44 49
44 54
44 62
45 46
45 52
45 53
45 56
45 63
45 65
46 52
46 53
46 56
46 63
46 65
47 50
47 51
47 55
48 49
48 54
48 62
49 54
49 62
50 51
50 55
51 55
51 57
51 64
52 53
52 56
52 63
52 65
53 54
53 56
53 63
53 65
54 62
56 58
56 59
56 61
56 63
56 65
57 60
57 64
58 59
58 61
58 62
59 61
60 64
63 65
0
1 2
3
4 5
6 7
8
9
10 11
12 13
14
15 16
17
18
19
20 21
22
23
24
25 26
27
28 29
30
31
32
33
34
35 36
37 38
39
40 41
42 43
44 45
46 47
48
49 50
51 52
53 54
55
56 57
58
59 60
61
62 63
64 65
